100 106159

 23 763
337 721
866 998
44 260
429 736
763 552
954 313
986 161
422 896
951 596
36 825
746 546
643 220
250 338
508 382
130 973
872 6
358 986
627 981
159 997
207 477
992 964
754 396
962 27
296 225
165 946
504 14
495 546
175 76
734 287
362 89
187 860
332 592
564 903
727 689
482 972
526 510
139 639
915 577
929 485
684 846
18 645
538 802
630 787
995 192
997 651
858 200
64 584
954 678
613 998
801 31
408 92
320 78
464 399
147 822
358 845
858 737
38 897
151 323
126 89
404 59
997 853
174 731
146 699
916 340
883 380
33 959
752 64
656 774
768 310
495 40
992 743
44 331
235 723
397 708
450 535
922 778
561 582
46 287
408 735
417 590
966 13
600 902
636 546
714 869
771 883
636 445
238 508
875 416
733 450
742 896
997 789
803 127
830 611
952 996
152 596
498 786
581 770
330 351
840 372
